GeneratedTests/Random_12/Random_12_5.tsp
NAME: Random_12_5
TYPE: TSP
DIMENSION: 12
EDGE_WEIGHT_TYPE: EUC_2D
NODE_COORD_SECTION
1 13.475959 30.639084
2 34.828403 11.2092495
3 29.755898 8.949705
4 18.292885 11.550083
5 13.702269 19.191456
6 20.769352 0.8588433
7 27.394714 4.324255
8 10.839573 30.84631
9 5.690167 23.577229
10 25.445415 22.811337
11 12.4532795 6.819995
12 27.403126 14.755123
EOF
