GeneratedTests/Random_12/Random_12_5.txt
NAME: Random_12_5
TYPE: TSP
DIMENSION: 12
EDGE_WEIGHT_TYPE: EUC_2D
NODE_COORD_SECTION
1 33.559074 20.556637
2 0.9663849 3.8520384
3 24.845829 11.172375
4 29.995695 5.7033787
5 34.78141 33.97456
6 16.043797 20.816042
7 19.102177 24.143713
8 3.2279463 28.871492
9 1.1361794 25.728252
10 17.223574 18.720894
11 16.194134 24.371113
12 20.307135 29.249073
EOF
